NAME: random-7-20764
TYPE: TSP
COMMENT: size=7 seed=20764
DIMENSION: 16
EDGE_WEIGHT_TYPE: EUC_2D
NODE_COORD_SECTION
+0 548 279
-0 548 279
+1 406 546
-1 144 327
+2 884 347
-2 99 165
+3 550 189
-3 898 586
+4 883 83
-4 993 179
+5 296 896
-5 513 555
+6 697 985
-6 513 73
+7 285 267
-7 161 642
PRECEDENCE_SECTION
+0 -0
+1 -1
+2 -2
+3 -3
+4 -4
+5 -5
+6 -6
+7 -7
EOF
